120
150
45
45
50
42
42
50
43
53
48
46
52
46
42
60
43
45
42
54
50
48
48
40
53
58
41
51
40
40
40
51
49
50
52
45
54
50
46
40
55
56
43
51
52
42
56
45
60
45
40
40
40
49
41
60
52
46
52
48
49
53
58
44
48
40
52
60
40
50
49
48
53
40
40
40
52
46
52
43
55
52
40
40
40
55
53
42
50
42
58
55
55
42
51
57
44
51
55
43
48
60
45
45
43
54
54
46
50
44
50
56
55
56
46
45
60
45
45
50
46
53
